SYSTEM =Sys
ENCUT =500.0
NSW =0
ISIF =2
IBRION =2
POTIM =0.5
ISPIN =2
EDIFF =1.0E-6
EDIFFG =-0.01
PREC =Accurate
ISYM =0
ISMEAR =0
SIGMA =0.05
NCORE =12    #MAG
EMIN = -20
EMAX = 20
NEDOS = 3000
LORBIT = 11
NELMIN = 4
NELM = 150

LDIPOL = .TRUE.
EFIELD = 0
IDIPOL = 3

GGA = PE
LHFCALC = .TRUE.
HFSCREEN = 0.2
ALGO = All
TIME = 0.4
PRECFOCK = normal
