SYSTEM =Sys
ENCUT =500.0
NSW =1000
ISIF =2
IBRION =2
POTIM =0.5
ISPIN =2
EDIFF =1.0E-6
EDIFFG =-0.01
PREC =Accurate
ISYM =0
ISMEAR =0
SIGMA =0.05
NCORE =24    #Gadi
LORBIT = 11
IALGO = 48
NELMIN = 4
NELM = 150

LDIPOL = .TRUE.
IDIPOL = 3
EFIELD = -0.2

METAGGA  = SCAN
LUSE_VDW = .TRUE.
BPARAM = 15.7
LASPH = .TRUE.
